RT is False
Default write of storage_offers_DA.csv just to have a file (but constraint should be inactive)
Reading model...
...model read.
creating competitive generators file...
...competitive generators recorded.
Loading data...
.. day-ahead data with real-time VRE data read.
Compiling instance...
...instance created.
Creating Offer Mitigation (model will solve as dispatch if TRUE)...
NOTE: storage offers will not be mitigated
...storage offer mitigation file created
Converting model to MPEC...
...converted
NOTE: initial MIP solve with only storage competitive to get feasible solution
Solving...

Welcome to IBM(R) ILOG(R) CPLEX(R) Interactive Optimizer 12.9.0.0
  with Simplex, Mixed Integer & Barrier Optimizers
5725-A06 5725-A29 5724-Y48 5724-Y49 5724-Y54 5724-Y55 5655-Y21
Copyright IBM Corp. 1988, 2019.  All Rights Reserved.

Type 'help' for a list of available commands.
Type 'help' followed by a command name for more
information on commands.

CPLEX> Logfile 'cplex.log' closed.
Logfile 'C:\Users\llavin\Desktop\test826\logs\tmp3a7c52xv.cplex.log' open.
CPLEX> New value for parallel optimization mode: -1
CPLEX> New value for emphasis for MIP optimization: 1
CPLEX> New value for mixed integer optimality gap tolerance: 0.01
CPLEX> New value for integrality tolerance: 1e-12
CPLEX> New value for deterministic time limit in ticks: 75000
CPLEX> Problem 'C:\Users\llavin\Desktop\test826\logs\tmpv2vjl60h.pyomo.lp' read.
Read time = 0.23 sec. (13.92 ticks)
CPLEX> Problem name         : C:\Users\llavin\Desktop\test826\logs\tmpv2vjl60h.pyomo.lp
Objective sense      : Maximize
Variables            :   53809  [Nneg: 1,  Box: 22004,  Free: 4464,
                                 Binary: 27340]
Objective nonzeros   :    8980
Linear constraints   :  123253  [Less: 41346,  Greater: 59096,  Equal: 22811]
  Nonzeros           :  293289
  RHS nonzeros       :   67491

Variables            : Min LB: -5000.000        Max UB: 1000000.       
Objective nonzeros   : Min   : 0.2250000        Max   : 722.0000       
Linear constraints   :
  Nonzeros           : Min   : 0.2250000        Max   : 1000000.       
  RHS nonzeros       : Min   : 0.2250000        Max   : 1000000.       
CPLEX> CPXPARAM_Parallel                                -1
CPXPARAM_Emphasis_MIP                            1
CPXPARAM_DetTimeLimit                            75000
CPXPARAM_MIP_Tolerances_MIPGap                   0.01
CPXPARAM_MIP_Tolerances_Integrality              9.9999999999999998e-13
Tried aggregator 4 times.
MIP Presolve eliminated 88686 rows and 18942 columns.
MIP Presolve added 3403 rows and 0 columns.
MIP Presolve modified 24870 coefficients.
Aggregator did 12999 substitutions.
Reduced MIP has 24971 rows, 21312 columns, and 71249 nonzeros.
Reduced MIP has 8411 binaries, 0 generals, 0 SOSs, and 0 indicators.
Presolve time = 0.33 sec. (193.73 ticks)
Probing fixed 375 vars, tightened 4215 bounds.
Probing time = 0.08 sec. (18.92 ticks)
Tried aggregator 2 times.
MIP Presolve eliminated 849 rows and 751 columns.
MIP Presolve modified 3035 coefficients.
Aggregator did 34 substitutions.
Reduced MIP has 24088 rows, 20527 columns, and 68693 nonzeros.
Reduced MIP has 8036 binaries, 0 generals, 0 SOSs, and 0 indicators.
Presolve time = 0.13 sec. (89.49 ticks)
Probing fixed 0 vars, tightened 309 bounds.
Probing time = 0.14 sec. (23.38 ticks)
Clique table members: 45198.
MIP emphasis: integer feasibility.
MIP search method: dynamic search.
Parallel mode: opportunistic, using up to 32 threads.
Root relaxation solution time = 0.47 sec. (672.74 ticks)

        Nodes                                         Cuts/
   Node  Left     Objective  IInf  Best Integer    Best Bound    ItCnt     Gap

      0     0     8053.6511   226                   8053.6511     5927         
*     0+    0                         8053.5424     8053.6511             0.00%

Root node processing (before b&c):
  Real time             =    1.74 sec. (1400.62 ticks)
Parallel b&c, 32 threads:
  Real time             =    0.00 sec. (0.00 ticks)
  Sync time (average)   =    0.00 sec.
  Wait time (average)   =    0.00 sec.
                          ------------
Total (root+branch&cut) =    1.74 sec. (1400.62 ticks)

Solution pool: 1 solution saved.

MIP - Integer optimal, tolerance (0.01/1e-06):  Objective =  8.0535423960e+03
Current MIP best bound =  8.0536510668e+03 (gap = 0.108671, 0.00%)
Solution time =    1.74 sec.  Iterations = 5927  Nodes = 0 (1)
Deterministic time = 1400.77 ticks  (807.36 ticks/sec)

CPLEX> Incumbent solution written to file 'C:\Users\llavin\Desktop\test826\logs\tmpqq51i46p.cplex.sol'.
CPLEX> NOTE: no warmstart specified for MIP iteration, default behavior is true
NOTE: resolving with all competitive generators using storage-only solution to warmstart
Solving...

Welcome to IBM(R) ILOG(R) CPLEX(R) Interactive Optimizer 12.9.0.0
  with Simplex, Mixed Integer & Barrier Optimizers
5725-A06 5725-A29 5724-Y48 5724-Y49 5724-Y54 5724-Y55 5655-Y21
Copyright IBM Corp. 1988, 2019.  All Rights Reserved.

Type 'help' for a list of available commands.
Type 'help' followed by a command name for more
information on commands.

CPLEX> Logfile 'cplex.log' closed.
Logfile 'C:\Users\llavin\Desktop\test826\logs\tmp7qxvn8ey.cplex.log' open.
CPLEX> New value for parallel optimization mode: -1
CPLEX> New value for emphasis for MIP optimization: 1
CPLEX> New value for mixed integer optimality gap tolerance: 0.01
CPLEX> New value for integrality tolerance: 1e-12
CPLEX> New value for deterministic time limit in ticks: 75000
CPLEX> Problem 'C:\Users\llavin\Desktop\test826\logs\tmpwocyn_us.pyomo.lp' read.
Read time = 0.23 sec. (13.94 ticks)
CPLEX> MIP start file 'C:\Users\llavin\Desktop\test826\logs\tmpcfi7vh4z.cplex.mst' read.
CPLEX> Problem name         : C:\Users\llavin\Desktop\test826\logs\tmpwocyn_us.pyomo.lp
Objective sense      : Maximize
Variables            :   54529  [Nneg: 1,  Box: 22724,  Free: 4464,
                                 Binary: 27340]
Objective nonzeros   :    9676
Linear constraints   :  123253  [Less: 41346,  Greater: 59096,  Equal: 22811]
  Nonzeros           :  293289
  RHS nonzeros       :   67491

Variables            : Min LB: -5000.000        Max UB: 1000000.       
Objective nonzeros   : Min   : 0.2250000        Max   : 722.0000       
Linear constraints   :
  Nonzeros           : Min   : 0.2250000        Max   : 1000000.       
  RHS nonzeros       : Min   : 0.2250000        Max   : 1000000.       
CPLEX> CPXPARAM_Parallel                                -1
CPXPARAM_Emphasis_MIP                            1
CPXPARAM_DetTimeLimit                            75000
CPXPARAM_MIP_Tolerances_MIPGap                   0.01
CPXPARAM_MIP_Tolerances_Integrality              9.9999999999999998e-13
Warning:  No solution found from 1 MIP starts.
Retaining values of one MIP start for possible repair.
Tried aggregator 4 times.
MIP Presolve eliminated 88686 rows and 19662 columns.
MIP Presolve added 3403 rows and 0 columns.
MIP Presolve modified 24870 coefficients.
Aggregator did 12999 substitutions.
Reduced MIP has 24971 rows, 21312 columns, and 71249 nonzeros.
Reduced MIP has 8411 binaries, 0 generals, 0 SOSs, and 0 indicators.
Presolve time = 0.33 sec. (194.14 ticks)
Probing fixed 375 vars, tightened 4215 bounds.
Probing time = 0.06 sec. (18.92 ticks)
Tried aggregator 2 times.
MIP Presolve eliminated 849 rows and 751 columns.
MIP Presolve modified 3035 coefficients.
Aggregator did 34 substitutions.
Reduced MIP has 24088 rows, 20527 columns, and 68693 nonzeros.
Reduced MIP has 8036 binaries, 0 generals, 0 SOSs, and 0 indicators.
Presolve time = 0.11 sec. (89.50 ticks)
Probing fixed 0 vars, tightened 309 bounds.
Probing time = 0.14 sec. (23.38 ticks)
Clique table members: 45198.
MIP emphasis: integer feasibility.
MIP search method: dynamic search.
Parallel mode: opportunistic, using up to 32 threads.
Root relaxation solution time = 0.53 sec. (718.68 ticks)

        Nodes                                         Cuts/
   Node  Left     Objective  IInf  Best Integer    Best Bound    ItCnt     Gap

      0     0    55442.6381   252                  55442.6381     6493         
      0     0    54760.6638    44                    Cuts: 70     6557         
      0     0    54615.0010    41                    Cuts: 35     6591         
      0     0    54534.3251    33                    Cuts: 19     6608         
Repair heuristic found nothing.
      0    12    52612.8945    33                    Cuts: 10     6705         
Elapsed time = 4.72 sec. (2060.62 ticks, tree = 0.02 MB, solutions = 0)
*   240    59      integral     0    53334.2245    53657.1320     7005    0.61%

Clique cuts applied:  1
Cover cuts applied:  7
Implied bound cuts applied:  3
Flow cuts applied:  60
Mixed integer rounding cuts applied:  9
Gomory fractional cuts applied:  3

Root node processing (before b&c):
  Real time             =    3.03 sec. (2024.27 ticks)
Parallel b&c, 32 threads:
  Real time             =    2.28 sec. (227.51 ticks)
  Sync time (average)   =    0.78 sec.
  Wait time (average)   =    0.00 sec.
                          ------------
Total (root+branch&cut) =    5.31 sec. (2251.78 ticks)

Solution pool: 5 solutions saved.

MIP - Integer optimal, tolerance (0.01/1e-06):  Objective =  5.3334224495e+04
Current MIP best bound =  5.3657131951e+04 (gap = 322.907, 0.61%)
Solution time =    5.34 sec.  Iterations = 8170  Nodes = 253 (78)
Deterministic time = 2251.94 ticks  (421.40 ticks/sec)

CPLEX> Incumbent solution written to file 'C:\Users\llavin\Desktop\test826\logs\tmpgu1oyt3l.cplex.sol'.
CPLEX> Exporting results... 
